33D32945 STP File, STP Format Version 1.0

SECTION Comments
Name "edge_n11_d4_s2"
Problem "Euclidean Steiner Tree Problem"
Remark "Generated with STPGenerator. 4 dimensions."
END

SECTION Graph
Nodes 11
END

SECTION Coordinates
DDDD 0 0.7009763693 0.7009763693 0.7009763693 0.7009763693
DDDD 1 0.8096763491 0.8096763491 0.8096763491 0.8096763491
DDDD 2 0.0887954552 0.0887954552 0.0887954552 0.0887954552
DDDD 3 0.1214791905 0.1214791905 0.1214791905 0.1214791905
DDDD 4 0.3483067552 0.3483067552 0.3483067552 0.3483067552
DDDD 5 0.4219620016 0.4219620016 0.4219620016 0.4219620016
DDDD 6 0.6998054984 0.6998054984 0.6998054984 0.6998054984
DDDD 7 0.0663843365 0.0663843365 0.0663843365 0.0663843365
DDDD 8 0.5874823525 0.5874823525 0.5874823525 0.5874823525
DDDD 9 0.6429663057 0.6429663057 0.6429663057 0.6429663057
DDDD 10 0.9906032789 0.9906032789 0.9906032789 0.9906032789
END
